
 102   30
  10   10   10   10   10   10   10   10   10   10   10   10   10   10   10   10   10   10   10   10   10   10   10   10   10   10   10   10   10   10

   0   0   0   0   0   0   0   0   0   0   0   0   0   0   0   0   0   0   0   0   0   0   0   0   0   0   0   0   0   0   0  23 2 3 5 6 7 8 9 10 11 12 13 15 16 17 18 19 21 23 26 29 30 39 47 
   9   0   0   3   0   0   0   0   0   0   0   0   0   0   0   0   2   1   0   0   0   0   0   2   0   0   0   0   0   0   0   9 45 43 42 36 34 31 25 22 4 
   6   0   0   0   1   0   1   0   0   0   0   0   0   0   0   0   0   0   0   0   0   0   0   0   0   0   0   1   0   0   0  15 99 73 61 58 57 56 54 52 51 50 49 46 36 24 22 
   3   0   0   4   0   0   0   0   1   0   0   0   1   0   1   1   0   0   0   0   2   0   0   0   0   0   0   6   1   0   1  19 101 100 99 73 71 63 60 59 58 57 54 53 51 50 49 44 40 32 28 
   4   0   0   0   0   0   0   0   0   0   0   0   7   0   7   0   3   9   0   0   0   0   0   0   0   0   0   0   0   0   0  13 88 73 59 56 54 49 44 41 38 35 33 28 20 
   6   0   2   4   0   0   0   1   4   0   0   0   0   0   0   0   0   0   0   1   0   0   0   0   0   0   0   0   0   0   0  12 99 97 73 72 71 70 56 50 48 35 33 24 
   8   0   0   0   0   0   0   0   9   0   0   0   0   0   0   0   0  10   0   0   4   0   0   9   0   0   0   0   0   0   0  10 100 88 68 63 61 52 41 36 34 14 
  10   0   0   0   0   0   0   8   0   0   0   0   9   0   0   0   0   0   0   0   0   0   0   0   0   0   0   0   0   0   0  17 101 100 97 90 86 73 72 71 70 63 59 57 56 53 52 49 24 
   4   0   0   3   0   0   0   0   0   0   0   0   4   0   0   7   0   0   0   0   0   0   0   0   0   0   0   7   8   0   0  15 99 98 97 92 72 71 58 57 54 53 50 45 37 35 33 
   2   0   0   4   5   0   0   0   0   0   0   0   0   1   0   0   0   0   0   0   0   0   0   9   0   0   0   0   0   0   0  15 101 98 95 94 88 73 59 57 55 53 52 50 43 42 34 
   2   0   0  10   0   1   0   0   0   0   0   0   0   0   0   0   0   0   0   0   0   0   0   7   4   1   0   0   0   1   0  14 100 95 73 63 62 60 56 55 52 49 46 43 42 40 
   9   0   0   0   0   6   0   0   5   0   0   0   0   0   3   9   0   0   0   0  10   0   0   0   0  10   1   5   0   0   0  14 100 99 97 88 73 68 62 58 57 56 50 48 35 27 
   6   0   0   0   0   0   0   0   0   0   1   0   0   0   0   0   0   0   0   0   0   1   0   0   0   0   0   0  10   2   0  19 100 99 98 96 95 94 93 92 88 73 70 68 65 63 59 57 55 50 45 
   7   0   0   0   0   0   0   0   0   0   0   5   0   0   0   8   0   0   0   0   0   0   0   0   0   0   0   0   0   0   0  13 98 96 95 93 92 71 59 56 55 53 51 46 45 
   4   0   0   0   0   0   0   0   0   0   5   0   0   0   8   5   3  10   0   0   6   0   0   0   0   0   0   0   0   0   0  10 101 96 95 91 71 63 61 60 51 32 
   2   1   0   0   0   0   0   0   0   0   8   0   0   0   0   0   0   0   1   0   0   0   0   0   0   0   0   0   0   0   0  13 99 97 94 93 88 86 73 70 68 66 59 53 33 
   1   0   7   0   0   0   0   0   0   0   0   0   0   0   0   0   0   6   0   0   0   5   0   0   0   6   0   0   0   0   0  12 100 95 90 88 72 70 66 61 52 50 49 42 
   3   0   0   0   4   0   0   0   0   0   0   0   0   0   0   0   0   0   4   0   0   0   0   0   0   0   0   0   0   0   8  15 98 95 94 91 89 85 69 68 67 66 64 63 51 49 43 
   3   8   0   0   0   0   0   0   0   0   5   0   0   0   0   0   0   0   8   0   0   0   0   0   0   0   0   0   0   9   0  19 101 100 99 97 93 92 87 86 85 84 77 72 71 68 65 62 58 56 54 
   3   0   0   0   0   6   0   0   0   1   0   0   0   0   0   6   0   0   5   0   0   0   2   0   0   0   0   0   0   0   0   9 101 94 87 81 71 70 52 48 34 
   2   0   0   0   0   0   0   0   0   0   0   0   0   6   8   0   6   0   0   0   0   0   0  10   2   5   6   0   0   0   0  19 99 97 96 93 92 90 87 86 85 83 82 80 77 71 64 57 56 54 52 
   4   6   0   5   0   0   0   0   0   0   0   0   0   0   0   0   0   5   0   0   0   0   0   0   0   0   0   0   0   0   0  17 101 100 98 96 95 93 92 90 87 86 82 70 68 63 62 59 53 
   7   0   0   0   0   4   0   0   0   0   0   0   0   0   0   5   0   0   7   0  10   0   0   0   4   0   0   0   0   0   0  15 99 98 96 95 94 91 85 84 83 81 73 71 64 51 43 
   1   0   0   0   0   0   0   0   8   0   0   0   0   4   0   0   0   0   0   8   6   0   7   0   7   0   0   0   0   0   0   9 98 95 91 87 84 62 60 55 42 
   1   0   5   0   0   5   0   0   0   0   0   0   0   0   0   0   0   0   9   0   0   0   0   0   0   0   0   0   0   0   0  19 99 98 97 94 92 91 90 87 86 85 84 81 79 78 76 69 66 59 58 
   8   0   0   0   0   0   0   0   0   0   0   0   0   0   0   0   0   0   0   0   0   0   0   0   0   0   0   0   0   0   0  17 98 96 95 93 92 91 88 87 86 85 84 82 80 76 62 56 55 
   2   0   0   6   0   8   0   0   0   0   0   0   0   0   0   6   0   0   0   0   0   0   0   0   0   0   0   0   0   0   0  19 101 98 96 93 92 91 90 86 85 84 83 82 81 80 79 75 71 67 55 
   3   0   0   6   0   0   0   0   0   0   0   0   0   0  10   0   0   0   0   0   0   0   0   0  10   6   0   6   0   0   0  19 93 92 91 89 87 86 85 84 82 81 79 77 75 70 69 68 65 64 62 
   9   0   0   7   0   0   0   0   0   0   0   0   0  10   0   0   0   0   0   0   0   0   5   0   0   0   0   0   0   0   0  14 100 92 91 90 89 85 79 73 70 68 66 65 64 49 
   8   0   0   0   0   0   0   0   0   0   0   0   0   0   0   7   0   0   0   0   0   0   4   0   0   0   0   0   0   0   0  19 100 96 94 93 92 91 89 88 86 84 81 80 77 76 75 72 69 65 64 
   9   0   0   0   8   0   0   0   0   0   0   0   0   0   0   0   0   0   0   0   0   0   0   0   0   0   0   0   0   0   0  18 99 98 96 95 94 91 90 89 87 81 77 76 75 69 68 64 63 62 
  10   4   0   0   0   8   0   0   0   0   0   0   0   0   0   0   0   0   0   0   0   0   0   0   0   0   0   0   6   0   0  16 98 93 92 90 87 86 85 84 82 80 78 72 67 66 64 56 
   7   7   0   0   0   0   0   0   0   7   0   0   0   0   0   4   0   0   0   0   0   0   0   0   0   0   0   0   0   0   0  12 100 90 85 82 80 77 67 65 64 63 61 52 
   3   0   0   0   0   0   0   0   0   0   0   0   0   0   0   0   0   0   0   0   0   0   0   0   0   0   0   0   0   0   0  17 99 93 91 90 89 86 85 84 83 82 80 75 67 66 65 64 62 
   2   0   0   0   0   0   0   0   0   0   6   0   0   5   0   0   0   0   0   0   0   0   0   0   0   6   0   0   0   0   0  15 94 93 90 87 85 84 83 82 81 80 79 76 75 65 55 
   6   0   7   0   0   0   0   0   5   0   5   0   0   0   0   0   0   0  10   0   2   0   5   0   0   0   0   0   0   0   0  14 97 95 93 92 87 85 82 81 80 78 76 75 69 55 
   1   0   0   0  10   0   0   0   0   0   0   0   0   0   0   0   0   0   0   0   7   0   0   0   5   0   0   0   0   8   0  12 100 96 91 89 87 86 82 78 68 66 64 56 
   4   0   0   0   0   0   0   0   0   0   0   0   0   0   0   0   0   0   0   0   0   0   0   0   0   0   0   3   0   0   0  17 99 97 94 92 91 90 87 86 84 82 81 80 79 78 77 75 64 
   2   0   0   0   7   0   0   0   0   0   0   0   0   0   0   6   0   0   0   0   0   0   0   0   0   0   0   0   0   0   0  16 97 95 94 91 90 87 85 83 82 81 80 79 78 77 73 71 
   2   0   0   0   0   0   0   0   0   0   0   0   0   0   0   0   0   0   0   0   0   0   0   6   0   0   8   5   0   0   0  14 89 88 87 85 83 82 81 80 79 77 75 74 67 65 
   9   0   0   0   0   0   0   0   0   0   0   0   0   4   0   0   6   0   0   5   0   8   0   0   0   0   0   0   0   0   6  14 97 96 95 87 86 85 84 82 79 77 76 71 65 64 
   7   0   0   0   0  10   0   0   0   0   8   0   0   0   0   0   0   0   0   0   0   0   6   3   0   0   0   0   0   0   0  10 96 92 82 81 79 76 69 68 65 64 
  10   0   0   0   0   6   0   5   4   0   8   0   0   0   0   8   0   0   0   0   0   0   0   0   0   6   7   0   0   0   0  11 97 90 87 86 82 80 77 75 74 70 65 
   2   0   0   0   0   0   0   0   0   0   0  10   0   0   0   0   0   0   0   0   0   0   0   0   5   0   0   0   0   0   0   8 90 86 81 80 79 77 70 52 
   7   0   0   0   0   0   0   0   0   0   0   0   0   0   0   0   0   0   0   0   0   0   0   0   0   9   0   7   0   0   0  10 91 86 84 82 80 79 77 74 69 67 
   5   0  10   0   8   0   0   0   0   0   0   0   0   0   0   0   0   0   0   0   0   0   0   0   0   0   0   0   0   9   0  10 90 87 85 80 78 77 76 75 74 72 
   2   0   0   0   0   0   0   0   0   0  10   5   0   0   0   0   7   0   0   0   0   7   7   8   0   0   0   0   0   0   0   9 90 89 85 83 81 77 74 72 70 
   3   0   0   0   0   0   0   0   3   0   9   0   0   0   0   0   0   3   0   0   0   0   0   0   0   0   7   0   0   0   0   7 95 92 90 86 77 65 64 
  10   0   0   6   0   0   0   0   0   0   5   0   0   0   0   0   0   0   0   0   0   0   5   0   0   4   0   0   6   7   5   8 93 84 82 81 78 77 75 74 
   9   0   0   0   0   0  10   0   0   0   0   0   7   0   0   0   0   0   0   0   0   0   0   0   0   0   0   0   0   0   0   6 87 86 85 83 80 76 
   5   0   5   0   0   9   0   0   0   0   0   0   7   0   0   0  10   6   0   0   0   0   0   0   0   0   0   0   0   7   0   5 90 86 79 75 65 
   6   0   0   0   0   0   0   0   7   0   0   0   0   0   0   0   0   0   0   0   0   0   0   0   0   0   0   0   0   0   0   5 91 84 78 76 75 
   5   0   0   0   0   4   6   0   0   0   3   0   8   0   0   0   0   0   0   0   0   0   0   8   0   0   0   8   0   0   0   5 85 84 81 77 75 
   1   0   0   0   0   0   0   0   0   0   0   0   0   6   0   0   0   8   0   0   0   0   5   0   0   5   0   0   0   0   0   5 95 89 79 76 75 
   6   0   0   8   0   0   0   0   0   0   4   0   0   0   0   0   0   0   0   0   0   0   6   0   0   0   0  10   0   0   0   3 89 66 64 
   8   0   0   0   0   0   0   0   5   0   0   0   0   0   0   0   0   0   0   0   4   0   0   0   0   0   0   0   9   0   0   4 94 81 79 75 
   8   0   0   0   0   6   0   0   0   0   0   0   0   0   0   0   0   0   4   0   0   0   0   0   0   0   0   0   0   2   5   4 81 79 76 74 
   6   0   0   7   4   0   0   9   0   0   0   0   0   0   0   0   0   0   0   7   0   0   0   3   0   0   0   0   0   0   0   4 96 83 82 74 
   1   0   0   0   0   0   6   0   0   0   0   0   0   0   0   7   0   0   0   0   0   0   0   0   8   0   0   7   0   6   0   3 80 75 64 
   9   0   0   0  10   0   7   0   0   0   8   0   0   0   0   0   0   0   0   0   0   0   5   5   0   0   0   0   6   0   0   3 88 75 67 
   4   0   0   0   0   0   0   0   0   0   0   3  10   0   0   0   0   0   0   8   6   0   5   0   0   7   0   0   0   0   0   3 89 81 76 
   5   0   0   0   0   0   0   0   0   0   0   0   0   0   0   0   0   0   7   0   0   6   0   0   0   0   0   0   0   0   0   2 78 74 
   3   0   0   0   0   0   0   0   0   0   0   0   5   0   0   0   0   0   0   0   0   0   0   0   0   0   0   0   0   0   9   2 83 79 
   8   0   0   0   2   0   0   0   0   0   0   0   0   0   6   0   0   0   0   0   0   0   0   0   0   0   3   0   0   0   0   1 74 
   4   0   0   0   9   0   0   0   0   0   0   0   0   7   0   0   0   6   0   0   9   0   0   0   0   0   0   0   0   0   0   1 78 
   9   9   0   0   0   0   0   0   0   0   6   0   0   0   0   0   0   5   0   0   0   0   0   0   0   5   7   9   0   0   0   1 77 
   3   0   0   0   0   0   0   0   0   0   0   0   0   0   9   0   5   0   5   0   0   0   0   0   0   0   5   0   0   0   0   1 76 
   5   0   0   0   0   0   0   0   8   0   0   0   0   6   0   0   0   0   0   2   0   0   0   0   0   0   0   0   0   0   0   1 80 
   3   0   0  10   0   0   0   0   0   0   6   0   5   0   0   0   0   0   0   0   0   0   0   0   0   0   0   0   0   0   0   1 83 
   2   0   0   0   0   0   0   0   0   0   0   8   0   0   0   0   0   0   0   0   6   0   0   0   0   0   0   0   0   0   0   1 76 
  10   5   0   0   0   0   0   0   0   0   0   0   0   0   2   0   0   0   0  10   0   0  10   6   0   8   0   0   0   0   0   1 74 
   4   0   0   0   4   5   0   0  10   6   0   0   0   0   0   6   0   0   5   0   0   0   0   0   0   0   0   6   0   0   7   1 79 
   5   0   0   0   0   0   0   0   7   0   0   0   5   0   0   0   0   0   0   4   0   6   0   0   4   0   0   0   0   0   0   1 75 
   5   0   0   0   0   6   0   0   0   0   0   0   0   0   0   0   0   0   0   0   0   0   0   7   0   0   0   0   0   0   0   1 102
   9   0   0   0   0   0   0   0   0   0   0   0   0   0   4   0   0   0   0   0   0   0   0   0   0   0   0   0   0   0   0   1 102
   9   0   0   0   0   0   0   0   0   0   0   0   0   0   0   0   0   0   0   0   8   0   0   0   0   0   0   0   0   0   0   1 102
   3   0   0   0   0   0   0   7   0   0   0   0   0   0   0   5   0   0   0  10   0   0   0   0   0   0   0   0   5   0   0   1 102
   7   0   0   0   0   0   0  10   0   0   0   0   0   0   8   0   0   0   0   0   0   0   0   0   0   0   0   5   0   0   0   1 102
  10   9   0   0   9   0   0   0   0   0   0   0   0   0   0   0   0   0   0   0   0   0   0   0   0   0   0   0   0   0   8   1 102
   5   0   0   0   0   0   0   0   0   0   0   0   0   0   0   0   0   0   0   8   4   0   0   0   0   0   0   0   0   0   0   1 102
   2   4   0   0   0   0   0   0   0   0   0   0   0   0   0   0   0   0   0   0   6   7   0   0   0   0   0   0   0   0   0   1 102
   7   0   0   0   0   9   0   0   0   0   0   0   0   0   0   0   0   0   0   5   0   0   0   0   0   0   0   0   0   0   8   1 102
   5   0   0   0   0   0   0   0   0   9   0   0   0   0   0   0   0   0   0   8   0   0   0   0   0   0   0   5   0   0   0   1 102
   5   0   0  10   4   0   0   0   0   0   0   0   6   0   0   0   0   0  10   0   0   7   0   0   0   0   0   0   8   0   0   1 102
   9   0   8   0   0   0   0   0   0   0   9   0   0   0   0   0   0   7   0   0   0   0   0   5   0   0   0   0   7   0   0   1 102
   1   0   4   0   5   0   0   0   6   0   0   0   0   0   0   0  10   0   0   0   0   0   0   0   0   0   0   0   0   0   0   1 102
   6   0   0   0   0   0   0   0   0   0   0   3   0   0   0   0   0   0   0   0   0   0   0   0   0   0   7   0   0   0   0   1 102
   6   0   0   0   0   0   0   0   0   0   0   0   0   0   0   0   7   0   0   0   0   0   0   0   0   0   0   0   0   0   0   1 102
   5   0   0   0   0   0   0   0   9   0   0   0   0   0   0   0   0   0   6   0   0   0  10   0   0   0   0   0   0   8   0   1 102
   5   0   0   0   0   0   0   0   8   0   0   0   0   0   0   0   0   0   7   0   0   0   0   3   0   0   0   0   0   0   0   1 102
   3   0   0   0   0   0   0   0   0   7   0   6   0   0   0   0   0   4   0   0   0   0   9   0   7   0   0   0   0   0   0   1 102
   5   0   9   0   0   0   0   3   6   0   0  10   4  10   0   0   0   0   0   0   0   0   0   0   0   0   7   0   0   0   0   1 102
   2   0   0   0   0   0   7   0   0   0   0   3   0   0   0   0   0   4   0   0   0   3   0   0   0   0   0   0   0   6   0   1 102
   1   0   0   0   0   0   0   0   0   6   0   0   0   0   0   0   0   0   0   0   0   6   0   6   0   0   8   0   0   0   6   1 102
   1   7   0   0   0   3   5   5   0   0   0   0   0   7   0   0   0   0   0   0   0   0   5   0   0   0   0   0   3   0   0   1 102
   8   0   4   5   0   0   0   0   0   0   2   0   0   0   0   0   0   0   0   0   0  10   0   0  10   6   0   0   0   0   0   1 102
   4   0   0   0   0   0   0   0   0   0   0   3   0   0   0   0   5   0   4   0   0   0   0   0   0   0   0   0   0   0   0   1 102
   7   0   0   0   0   0   0   0   0   0   0  10   0   0   0   0   5   0   0   0   0   0   0   0   0   0   0   0   0   0   0   1 102
   6   0   0   0   0   0   0   0   0   0   0   0   0   0   0   0   0   0   0   0   0   0   0   0   0   0   0   0   0   6   0   1 102
   9   0   5   5   0   0   0   0   0   0   0   0   0   0   0   0   0   0   4   2   0   0   0   0   0   0   0   0   3   0   0   1 102
   4   0   0   5   0   0   0   0   3   0   0   0   0   0   0   0   9   0   0   0   0   0   0   5   0   0   0   0   0   7   3   1 102
   0   0   0   0   0   0   0   0   0   0   0   0   0   0   0   0   0   0   0   0   0   0   0   0   0   0   0   0   0   0   0   0 
